log             log.lammps
#### ENVIRONMENT SETTING ####
## VARIABLE ##
variable        dt      equal 1.00
variable        tns     equal ${dt}*1000000 
variable        rsd     equal 1316721

variable        stemp   equal 298.00
variable        tdamp   equal 100*${dt}

variable        teq     equal ${tns}*1
variable        tdc     equal ${tns}*10
variable        tpr     equal 1000 # ${tdc}/10000

## GENERAL ##
units           real
boundary        p p p
box             tilt large

## INTERACTION ##
atom_style      full
pair_style      lj/cut 12.50
pair_modify     tail yes mix arithmetic
# bond_style      harmonic
special_bonds   lj/coul 0.0 0.0 1.0
# angle_style     hybrid cosine/periodic fourier
# dihedral_style  harmonic
dielectric      1.0

## LOAD STRUCTURE ##
read_data       data.lmp
replicate       1 1 1
#### ENVIRONMENT END ####

#### SIMULATION SETTING ####
dump            File1 all custom ${tpr} dump.lammpstrj id type x y z
dump_modify		File1 sort id
run 			0
undump 			File1
#### SIMULATION END ####
